998479 1076906 6063 158
999108 1083341 6781 159
998715 1073431 5969 160
997882 1086610 5875 161
999715 1081381 6047 162
998841 1085613 6078 163
999600 1086789 5984 164
997054 1085777 6422 165
998054 1074723 7219 166
999779 1084372 6625 167
999716 1079847 6375 168
998142 1078255 6219 169
998669 1077172 6406 170
999222 1080411 6359 171
998460 1082034 5938 172
998032 1079614 6468 173
998529 1082278 6157 174
998800 1079118 6922 175
997213 1073575 7078 176
999760 1078610 6078 177
997829 1076162 5922 178
997173 1077491 6172 179
999399 1081484 6531 180
999998 1075548 6781 181
997918 1082829 6281 182
998043 1087376 6688 183
995919 1083521 6281 184
997416 1081133 6734 185
999749 1081443 6032 186
999933 1078441 6937 187
